letting initialStacks = [6, 20, 28, 17, 43, 21, 13, 47, 44, 5, 25, 23, 3, 11, 42, 39, 30, 51, 26, 33, 48, 14, 34, 7, 18, 27, 2, 19, 8, 16, 40, 15, 24, 36, 49, 10, 38, 4, 35, 37, 46, 29, 22, 31, 12, 50, 9, 1, 32, 45, 41]
